
%FILE DATA:	Soccer Computational Problem for MiniZinc Models	%
%AUTHOR:	Jack Wall	%
%CONTACT:  	116397063@umail.ucc.ie			%
%LAST UPDATE:	03/03/2020, 15:59:51						%
%DESCRIPTION: 	24 games played with 6 games left				%


n=6; %number of teams

%Games to play
games=[|1,4|5,1|6,2|2,3|4,6|2,5|];

%Initial points
iPoints=[12,11,6,11,15,9];

%POSITION CONSTRAINTS
% [|teamID, operator, position|...]
% operators index:
%  1 for =  operator
%  2 for >  operator
%  3 for >= operator
%  4 for <  operator
%  5 for <= operator
positionConstraints=[|5,1,1|2,5,2|6,5,3|];